endtime = 15;
SERVICE = { S1, S2, S3, S4, S5, S6, S7, S8, S9, S10 };
start =     [0,  0,  0,  7,  3,  5,  6, 10, 11,  12];
end   =     [4,  5,  3, 11,  5,  8,  9, 12, 13,  15];
STYPE = { Gas, Refit, Roof, Solar };
stype =  [ Gas, Refit, Roof, Gas, Solar, Solar, Refit, Roof, Gas, Refit ];
TRUCK = { DD, T1,  T2,  T3,  T4, T5 };
dtruck = DD;
ttype = [ DUMMY, SML, SML, MED, LRG, MED ];
maxsty = [1,2,3,0];

maxmaint = 2;
maintdur = [0,1,3,5];
maxsep = [ 0, 5, 10, 0 ];

minwork = 30;
minservice = 80;

majorwork = 30;
prework = [ 0, 5, 10, 15, 20, 25 ];

%truck = [ T1, T3, T5, T1, T5, T5, T2, T4, T5, T4 ];
%truck = [ T4, T5, T3, T5, DD, T4, T3, T4, T5, T4 ];
%truck = [ T4, T2, T1, T4, T3, T3, T2, T1, DD, DD ];

% truck = [T2, T1, DD, T2, T3, T3, T1, DD, T3, T1];
% mt =
% [| DD: NO, NO
% | T1: SH, LG
% | T2: LG, LG
% | T3: LG, LG
% | T4: NO, NO
% | T5: NO, NO
% |];
% ms =
% [| DD: 0, 0
% | T1: 5, 9
% | T2: 4, 12
% | T3: 0, 8
% | T4: 0, 0
% | T5: 0, 0
% |];

% truck = [DD, T3, T4, T4, T5, T5, DD, T3, T5, T4];
% mt =
% [| DD: NO, NO
% | T1: NO, NO
% | T2: NO, NO
% | T3: LG, SH
% | T4: LG, SH
% | T5: SH, LG
% |];
% ms =
% [| DD: 0, 0
% | T1: 0, 0
% | T2: 0, 0
% | T3: 5, 12
% | T4: 3, 11
% | T5: 2, 8
% |];

% truck = [T4, T1, T3, DD, T3, T4, T1, T3, DD, T4];
% mt =
% [| DD: NO, NO
% | T1: SH, LG
% | T2: NO, NO
% | T3: LG, SH
% | T4: SH, LG
% | T5: NO, NO
% |];
% ms =
% [| DD: 0, 0
% | T1: 5, 10
% | T2: 0, 0
% | T3: 5, 13
% | T4: 4, 8
% | T5: 0, 0
% |];